100 8
557 446
848 469
172 229
436 936
613 797
459 183
819 292
438 819
59 276
458 68
459 253
204 816
713 650
220 725
745 814
687 583
433 195
195 401
134 114
568 403
789 334
665 671
815 653
565 763
439 860
316 877
423 326
311 363
677 334
545 626
193 458
447 792
503 741
504 799
273 522
313 522
547 149
538 840
88 132
658 701
92 589
643 341
817 693
143 298
252 456
871 169
650 785
46 107
196 592
842 655
301 276
964 221
205 510
453 131
444 199
561 852
539 212
343 758
596 935
816 298
499 772
736 726
257 768
449 867
202 371
127 335
211 363
637 435
419 780
736 817
361 758
439 777
416 836
590 216
576 252
451 144
726 442
110 570
164 354
240 460
581 133
921 352
335 312
218 783
265 633
543 791
954 293
471 718
533 774
245 865
510 399
552 795
480 656
664 770
442 799
753 709
449 193
640 390
293 405
928 222
